outputs/case_65.model.txt
is_agent_or_notary = True
purchased_liability_insurance = True
purchased_guarantee_insurance = False
is_broker = True
penalty_or_license_revoked = True
violate_financial_or_business_management_rules = True
violate_related_provisions = True
note_issued_in_insured_or_beneficiary_name = False
pay_by_note = False
applicant_declaration_provided = False
director_or_supervisor_removed_by_authority = False
violate_law_or_harmful_to_operation = True
restricted_business_scope = True
corrected_or_ordered_to_improve = False
ordered_manager_or_staff_removed = False
ordered_director_or_supervisor_removed_or_suspended = False
other_necessary_measures = False
apply_agent_broker_rules = True
authority_set_management_rules = True
authority_set_minimum_and_implementation = True
bank_authorized = False
bank_engage_agent = False
bank_engage_broker = False
notify_registration_authority_to_cancel = False
broker_charge_fee = False
broker_disclose_fee_standard = False
broker_exercise_due_care = False
broker_fulfill_fidelity = False
broker_provide_written_report = False
related_insurance_purchased = True
related_insurance_type_ok = True
broker_report_and_fee_disclosed = False
broker_duty_of_care_and_fidelity = False
minimum_amount_and_implementation_set = True
management_rules_set = True
issue_note_in_own_name = False
agent_license_and_guarantee_ok = True
guarantee_deposited = True
violation_financial_or_business_management_penalty = True
violation_and_administrative_measures = True
penalty = False
direct_total_payment_to_insurer = True
agent_issue_note_declaration_required = True
director_supervisor_deregistration = True
bank_permission_and_apply_agent_broker_rules = False
has_practice_certificate = True
agent_fee_payment_and_declaration = True
licensed_by_authority = True